% Auto-generated by scripts/generate_dzn.py
% problem_type   = regex
% instance       = regex_90
% source_json    = instances_json/2_high_blowup/regex_90.json
% blowup         = 24.09090909090909
% representation = DFA

mode = 0;

var_count = 22;
Q = 265;
S = 2;
q0 = 1;
F = {152, 153, 154, 155, 156, 157, 158, 159, 160, 161, 162, 163, 164, 165, 166, 167, 168, 169, 170, 171, 172, 173, 174, 175, 176, 177, 178, 179, 180, 181, 182, 183, 184, 185, 186, 187, 188, 189, 190, 191, 192, 193, 194, 195, 196, 197, 198, 199, 200, 201, 202, 203, 204, 205, 206, 207, 208, 209, 210, 211, 212, 213, 214, 215, 216, 217, 218, 219, 220, 221, 222, 223, 224, 225, 226, 227, 228, 229, 230, 231, 232, 233, 234, 235, 236, 237, 238, 239, 240, 241, 242, 243, 244, 245, 246, 247, 248, 249, 250, 251, 252, 253, 254, 255, 256, 257, 258, 259, 260, 261, 262, 263, 264, 265};
d_dfa = array2d(1..265, 1..2, [
  2, 1,
  3, 1,
  5, 4,
  7, 6,
  9, 8,
  11, 10,
  12, 10,
  14, 13,
  16, 15,
  18, 17,
  19, 17,
  21, 20,
  23, 22,
  24, 22,
  26, 25,
  28, 27,
  30, 29,
  31, 29,
  33, 32,
  35, 34,
  37, 36,
  39, 38,
  40, 38,
  42, 41,
  44, 43,
  45, 43,
  47, 46,
  49, 48,
  51, 50,
  52, 50,
  54, 53,
  56, 55,
  58, 57,
  60, 59,
  61, 59,
  63, 62,
  65, 64,
  67, 66,
  68, 66,
  70, 69,
  72, 71,
  74, 73,
  76, 75,
  77, 75,
  79, 78,
  81, 80,
  82, 80,
  84, 83,
  86, 85,
  88, 87,
  89, 87,
  91, 90,
  93, 92,
  95, 94,
  97, 96,
  98, 96,
  100, 99,
  102, 101,
  104, 103,
  105, 103,
  107, 106,
  109, 108,
  110, 108,
  112, 111,
  114, 113,
  116, 115,
  117, 115,
  119, 118,
  121, 120,
  123, 122,
  125, 124,
  126, 124,
  128, 127,
  130, 129,
  132, 131,
  133, 131,
  135, 134,
  137, 136,
  139, 138,
  141, 140,
  142, 140,
  144, 143,
  146, 145,
  147, 145,
  149, 148,
  151, 150,
  153, 152,
  154, 152,
  156, 155,
  158, 157,
  160, 159,
  162, 161,
  163, 161,
  165, 164,
  167, 166,
  169, 168,
  170, 168,
  172, 171,
  174, 173,
  175, 173,
  177, 176,
  179, 178,
  181, 180,
  182, 180,
  184, 183,
  186, 185,
  188, 187,
  190, 189,
  191, 189,
  193, 192,
  195, 194,
  196, 194,
  198, 197,
  200, 199,
  202, 201,
  203, 201,
  205, 204,
  207, 206,
  209, 208,
  211, 210,
  212, 210,
  214, 213,
  216, 215,
  218, 217,
  219, 217,
  221, 220,
  223, 222,
  224, 222,
  226, 225,
  228, 227,
  230, 229,
  231, 229,
  233, 232,
  235, 234,
  237, 236,
  239, 238,
  240, 238,
  242, 241,
  244, 243,
  246, 245,
  247, 245,
  249, 248,
  251, 250,
  253, 252,
  255, 254,
  256, 254,
  258, 257,
  260, 259,
  261, 259,
  263, 262,
  265, 264,
  2, 1,
  3, 1,
  5, 4,
  7, 6,
  9, 8,
  11, 10,
  12, 10,
  14, 13,
  16, 15,
  18, 17,
  19, 17,
  21, 20,
  23, 22,
  24, 22,
  26, 25,
  28, 27,
  30, 29,
  31, 29,
  33, 32,
  35, 34,
  37, 36,
  39, 38,
  40, 38,
  42, 41,
  44, 43,
  45, 43,
  47, 46,
  49, 48,
  51, 50,
  52, 50,
  54, 53,
  56, 55,
  58, 57,
  60, 59,
  61, 59,
  63, 62,
  65, 64,
  67, 66,
  68, 66,
  70, 69,
  72, 71,
  74, 73,
  76, 75,
  77, 75,
  79, 78,
  81, 80,
  82, 80,
  84, 83,
  86, 85,
  153, 152,
  154, 152,
  156, 155,
  158, 157,
  160, 159,
  162, 161,
  163, 161,
  165, 164,
  167, 166,
  169, 168,
  170, 168,
  172, 171,
  174, 173,
  175, 173,
  177, 176,
  179, 178,
  181, 180,
  182, 180,
  184, 183,
  186, 185,
  188, 187,
  190, 189,
  191, 189,
  193, 192,
  195, 194,
  196, 194,
  198, 197,
  200, 199,
  202, 201,
  203, 201,
  205, 204,
  207, 206,
  209, 208,
  211, 210,
  212, 210,
  214, 213,
  216, 215,
  218, 217,
  219, 217,
  221, 220,
  223, 222,
  224, 222,
  226, 225,
  228, 227,
  230, 229,
  231, 229,
  233, 232,
  235, 234,
  237, 236,
  239, 238,
  240, 238,
  242, 241,
  244, 243,
  246, 245,
  247, 245,
  249, 248,
  251, 250,
  253, 252,
  255, 254,
  256, 254,
  258, 257,
  260, 259,
  261, 259,
  263, 262,
  265, 264
]);
d_nfa = array2d(1..265, 1..2, [
  {}, {},
  {}, {},
  {}, {},
  {}, {},
  {}, {},
  {}, {},
  {}, {},
  {}, {},
  {}, {},
  {}, {},
  {}, {},
  {}, {},
  {}, {},
  {}, {},
  {}, {},
  {}, {},
  {}, {},
  {}, {},
  {}, {},
  {}, {},
  {}, {},
  {}, {},
  {}, {},
  {}, {},
  {}, {},
  {}, {},
  {}, {},
  {}, {},
  {}, {},
  {}, {},
  {}, {},
  {}, {},
  {}, {},
  {}, {},
  {}, {},
  {}, {},
  {}, {},
  {}, {},
  {}, {},
  {}, {},
  {}, {},
  {}, {},
  {}, {},
  {}, {},
  {}, {},
  {}, {},
  {}, {},
  {}, {},
  {}, {},
  {}, {},
  {}, {},
  {}, {},
  {}, {},
  {}, {},
  {}, {},
  {}, {},
  {}, {},
  {}, {},
  {}, {},
  {}, {},
  {}, {},
  {}, {},
  {}, {},
  {}, {},
  {}, {},
  {}, {},
  {}, {},
  {}, {},
  {}, {},
  {}, {},
  {}, {},
  {}, {},
  {}, {},
  {}, {},
  {}, {},
  {}, {},
  {}, {},
  {}, {},
  {}, {},
  {}, {},
  {}, {},
  {}, {},
  {}, {},
  {}, {},
  {}, {},
  {}, {},
  {}, {},
  {}, {},
  {}, {},
  {}, {},
  {}, {},
  {}, {},
  {}, {},
  {}, {},
  {}, {},
  {}, {},
  {}, {},
  {}, {},
  {}, {},
  {}, {},
  {}, {},
  {}, {},
  {}, {},
  {}, {},
  {}, {},
  {}, {},
  {}, {},
  {}, {},
  {}, {},
  {}, {},
  {}, {},
  {}, {},
  {}, {},
  {}, {},
  {}, {},
  {}, {},
  {}, {},
  {}, {},
  {}, {},
  {}, {},
  {}, {},
  {}, {},
  {}, {},
  {}, {},
  {}, {},
  {}, {},
  {}, {},
  {}, {},
  {}, {},
  {}, {},
  {}, {},
  {}, {},
  {}, {},
  {}, {},
  {}, {},
  {}, {},
  {}, {},
  {}, {},
  {}, {},
  {}, {},
  {}, {},
  {}, {},
  {}, {},
  {}, {},
  {}, {},
  {}, {},
  {}, {},
  {}, {},
  {}, {},
  {}, {},
  {}, {},
  {}, {},
  {}, {},
  {}, {},
  {}, {},
  {}, {},
  {}, {},
  {}, {},
  {}, {},
  {}, {},
  {}, {},
  {}, {},
  {}, {},
  {}, {},
  {}, {},
  {}, {},
  {}, {},
  {}, {},
  {}, {},
  {}, {},
  {}, {},
  {}, {},
  {}, {},
  {}, {},
  {}, {},
  {}, {},
  {}, {},
  {}, {},
  {}, {},
  {}, {},
  {}, {},
  {}, {},
  {}, {},
  {}, {},
  {}, {},
  {}, {},
  {}, {},
  {}, {},
  {}, {},
  {}, {},
  {}, {},
  {}, {},
  {}, {},
  {}, {},
  {}, {},
  {}, {},
  {}, {},
  {}, {},
  {}, {},
  {}, {},
  {}, {},
  {}, {},
  {}, {},
  {}, {},
  {}, {},
  {}, {},
  {}, {},
  {}, {},
  {}, {},
  {}, {},
  {}, {},
  {}, {},
  {}, {},
  {}, {},
  {}, {},
  {}, {},
  {}, {},
  {}, {},
  {}, {},
  {}, {},
  {}, {},
  {}, {},
  {}, {},
  {}, {},
  {}, {},
  {}, {},
  {}, {},
  {}, {},
  {}, {},
  {}, {},
  {}, {},
  {}, {},
  {}, {},
  {}, {},
  {}, {},
  {}, {},
  {}, {},
  {}, {},
  {}, {},
  {}, {},
  {}, {},
  {}, {},
  {}, {},
  {}, {},
  {}, {},
  {}, {},
  {}, {},
  {}, {},
  {}, {},
  {}, {},
  {}, {},
  {}, {},
  {}, {},
  {}, {},
  {}, {},
  {}, {},
  {}, {},
  {}, {},
  {}, {},
  {}, {},
  {}, {},
  {}, {},
  {}, {},
  {}, {},
  {}, {}
]);
